N6 {

### LAMMPS commands for initialization
### (These can be overridden later.)


  write_once("In Init") {
    units real
    atom_style full
    bond_style hybrid harmonic
    angle_style hybrid harmonic
    dihedral_style hybrid opls
    improper_style hybrid harmonic
    pair_style hybrid lj/cut/coul/long 10.0 10.0
    pair_modify mix geometric
    special_bonds lj/coul 0.0 0.0 0.5
    kspace_style pppm 0.0001
  }

  write_once("In Settings") {
    pair_coeff @atom:type1 @atom:type1 lj/cut/coul/long 0.25 3.55
    pair_coeff @atom:type2 @atom:type2 lj/cut/coul/long 0.07 3.55
    pair_coeff @atom:type3 @atom:type3 lj/cut/coul/long 0.03 2.42
    pair_coeff @atom:type4 @atom:type4 lj/cut/coul/long 0.14 2.9
    pair_coeff @atom:type5 @atom:type5 lj/cut/coul/long 0.066 3.5
    pair_coeff @atom:type6 @atom:type6 lj/cut/coul/long 0.03 2.5
    pair_coeff @atom:type7 @atom:type7 lj/cut/coul/long 0.07 3.55
  }

  write_once("In Settings") {
    bond_coeff @bond:type1 harmonic 268.0 1.529
    bond_coeff @bond:type3 harmonic 320.0 1.41
    bond_coeff @bond:type4 harmonic 340.0 1.09
    bond_coeff @bond:type8 harmonic 250.0 1.76
    bond_coeff @bond:type12 harmonic 450.0 1.364
    bond_coeff @bond:type13 harmonic 469.0 1.4
    bond_coeff @bond:type14 harmonic 469.0 1.4
    bond_coeff @bond:type16 harmonic 469.0 1.4
    bond_coeff @bond:type17 harmonic 367.0 1.08
  }

  write_once("In Settings") {
    angle_coeff @angle:type3 harmonic 50.0 109.5
    angle_coeff @angle:type4 harmonic 33.0 107.8
    angle_coeff @angle:type6 harmonic 35.0 109.5
    angle_coeff @angle:type7 harmonic 37.5 110.7
    angle_coeff @angle:type26 harmonic 75.0 111.0
    angle_coeff @angle:type35 harmonic 63.0 120.0
    angle_coeff @angle:type37 harmonic 63.0 120.0
    angle_coeff @angle:type45 harmonic 70.0 120.0
    angle_coeff @angle:type46 harmonic 70.0 120.0
    angle_coeff @angle:type47 harmonic 85.0 119.4
    angle_coeff @angle:type48 harmonic 85.0 119.4
    angle_coeff @angle:type53 harmonic 35.0 120.0
  }

  write_once("In Settings") {
    dihedral_coeff @dihedral:type6 opls -0.55 0.0 0.0 0.0
    dihedral_coeff @dihedral:type7 opls 0.0 0.0 0.468 0.0
    dihedral_coeff @dihedral:type8 opls 0.0 0.0 0.3 0.0
    dihedral_coeff @dihedral:type20 opls 0.0 0.0 0.76 0.0
    dihedral_coeff @dihedral:type40 opls 0.0 3.0 0.0 0.0
    dihedral_coeff @dihedral:type41 opls 0.0 3.0 0.0 0.0
    dihedral_coeff @dihedral:type42 opls 0.0 7.25 0.0 0.0
    dihedral_coeff @dihedral:type44 opls 0.0 7.25 0.0 0.0
    dihedral_coeff @dihedral:type45 opls 0.0 7.25 0.0 0.0
    dihedral_coeff @dihedral:type51 opls 0.0 7.25 0.0 0.0
    dihedral_coeff @dihedral:type53 opls 0.0 7.25 0.0 0.0
    dihedral_coeff @dihedral:type54 opls 0.0 7.25 0.0 0.0
    dihedral_coeff @dihedral:type56 opls 0.0 7.25 0.0 0.0
    dihedral_coeff @dihedral:type60 opls 0.0 7.25 0.0 0.0
    dihedral_coeff @dihedral:type84 opls 0.0 7.25 0.0 0.0
    dihedral_coeff @dihedral:type87 opls 0.0 7.25 0.0 0.0
    dihedral_coeff @dihedral:type90 opls 0.0 7.25 0.0 0.0
    dihedral_coeff @dihedral:type100 opls 0.0 7.25 0.0 0.0
  }

  write_once("In Settings") {
    improper_coeff @improper:type1 harmonic 2.5 180
    improper_coeff @improper:type2 harmonic 2.5 180
  }


### DATA sections


  write_once("Data Masses") {
    @atom:type1 32.06
    @atom:type2 12.011
    @atom:type3 1.008
    @atom:type4 15.999
    @atom:type5 12.011
    @atom:type6 1.008
    @atom:type7 12.011
  }

  write("Data Atoms") {
    $atom:id1  $mol:id1 @atom:type7    0.082973     -7.890   7.396   2.525  
    $atom:id2  $mol:id1 @atom:type7    0.125779     -6.500   7.393   2.543  
    $atom:id3  $mol:id1 @atom:type5   -0.139773     -6.518   9.680   2.183  
    $atom:id4  $mol:id1 @atom:type5   -0.099881     -7.860   9.674   2.895  
    $atom:id5  $mol:id1 @atom:type2    0.164090     -8.459   6.117   2.526  
    $atom:id6  $mol:id1 @atom:type2    0.043653     -5.931   6.109   2.572  
    $atom:id7  $mol:id1 @atom:type6    0.153185     -5.917  10.537   2.487  
    $atom:id8  $mol:id1 @atom:type6    0.148478     -8.452  10.546   2.615  
    $atom:id9  $mol:id1 @atom:type2   -0.082860     -9.835   5.801   2.514  
    $atom:id10 $mol:id1 @atom:type7    0.125608    -10.400   4.528   2.520  
    $atom:id11 $mol:id1 @atom:type7    0.165681    -11.804   4.530   2.504  
    $atom:id12 $mol:id1 @atom:type2    0.209876    -12.357   5.799   2.496  
    $atom:id13 $mol:id1 @atom:type5   -0.159074    -10.441   2.224   2.811  
    $atom:id14 $mol:id1 @atom:type5    0.011559    -11.769   2.264   2.074  
    $atom:id15 $mol:id1 @atom:type6    0.142181     -9.835   1.378   2.483  
    $atom:id16 $mol:id1 @atom:type6    0.130212    -12.364   1.380   2.305  
    $atom:id17 $mol:id1 @atom:type2   -0.330817    -13.752   6.133   2.475  
    $atom:id18 $mol:id1 @atom:type7    0.331792    -14.304   7.397   2.475  
    $atom:id19 $mol:id1 @atom:type7    0.216045    -15.729   7.400   2.446  
    $atom:id20 $mol:id1 @atom:type2   -0.364357    -16.251   6.141   2.437  
    $atom:id21 $mol:id1 @atom:type5   -0.153979    -14.348   9.694   2.802  
    $atom:id22 $mol:id1 @atom:type5    0.082857    -15.670   9.675   2.056  
    $atom:id23 $mol:id1 @atom:type6    0.136345    -14.517   9.724   3.885  
    $atom:id24 $mol:id1 @atom:type6    0.073321    -15.498   9.642   0.973  
    $atom:id25 $mol:id1 @atom:type4   -0.100611     -9.667   3.397   2.526  
    $atom:id26 $mol:id1 @atom:type4   -0.273033    -12.537   3.388   2.497  
    $atom:id27 $mol:id1 @atom:type4   -0.341591    -16.452   8.549   2.447  
    $atom:id28 $mol:id1 @atom:type4   -0.171842    -13.571   8.534   2.485  
    $atom:id29 $mol:id1 @atom:type4   -0.123639     -8.626   8.531   2.509  
    $atom:id30 $mol:id1 @atom:type4   -0.107866     -5.758   8.518   2.534  
    $atom:id31 $mol:id1 @atom:type1   -0.248680     -7.204   4.895   2.562  
    $atom:id32 $mol:id1 @atom:type1   -0.216403    -11.105   7.014   2.505  
    $atom:id33 $mol:id1 @atom:type1    0.064234    -15.025   4.932   2.455  
    $atom:id34 $mol:id1 @atom:type6    0.135042     -6.658   9.694   1.096  
    $atom:id35 $mol:id1 @atom:type6    0.124207     -7.720   9.660   3.983  
    $atom:id36 $mol:id1 @atom:type6    0.132197    -13.742  10.551   2.503  
    $atom:id37 $mol:id1 @atom:type6    0.107664    -16.262  10.558   2.302  
    $atom:id38 $mol:id1 @atom:type6    0.095499    -11.607   2.324   0.991  
    $atom:id39 $mol:id1 @atom:type6    0.141025    -10.603   2.164   3.893  
    $atom:id40 $mol:id1 @atom:type2    0.048991     -4.567   5.795   2.588  
    $atom:id41 $mol:id1 @atom:type7    0.123107     -3.998   4.511   2.630  
    $atom:id42 $mol:id1 @atom:type1   -0.243728     -3.295   7.008   2.576  
    $atom:id43 $mol:id1 @atom:type7    0.093393     -2.608   4.508   2.641  
    $atom:id44 $mol:id1 @atom:type4   -0.107342     -4.740   3.386   2.656  
    $atom:id45 $mol:id1 @atom:type2    0.155787     -2.039   5.787   2.618  
    $atom:id46 $mol:id1 @atom:type4   -0.139037     -1.872   3.373   2.667  
    $atom:id47 $mol:id1 @atom:type5   -0.125924     -3.978   2.229   3.019  
    $atom:id48 $mol:id1 @atom:type2   -0.094130     -0.663   6.103   2.617  
    $atom:id49 $mol:id1 @atom:type5   -0.086153     -2.639   2.225   2.300  
    $atom:id50 $mol:id1 @atom:type6    0.130165     -3.832   2.229   4.105  
    $atom:id51 $mol:id1 @atom:type6    0.147747     -4.580   1.367   2.729  
    $atom:id52 $mol:id1 @atom:type7    0.114974     -0.099   7.377   2.588  
    $atom:id53 $mol:id1 @atom:type1   -0.194108      0.608   4.892   2.678  
    $atom:id54 $mol:id1 @atom:type6    0.118807     -2.785   2.225   1.213  
    $atom:id55 $mol:id1 @atom:type6    0.145486     -2.046   1.357   2.589  
    $atom:id56 $mol:id1 @atom:type7    0.209898      1.305   7.375   2.601  
    $atom:id57 $mol:id1 @atom:type4   -0.093118     -0.832   8.506   2.543  
    $atom:id58 $mol:id1 @atom:type2    0.169455      1.858   6.108   2.652  
    $atom:id59 $mol:id1 @atom:type4   -0.289453      2.038   8.517   2.572  
    $atom:id60 $mol:id1 @atom:type5   -0.168676     -0.064   9.689   2.807  
    $atom:id61 $mol:id1 @atom:type2   -0.325453      3.254   5.776   2.666  
    $atom:id62 $mol:id1 @atom:type5    0.013597      1.277   9.626   2.099  
    $atom:id63 $mol:id1 @atom:type6    0.143585     -0.664  10.523   2.442  
    $atom:id64 $mol:id1 @atom:type6    0.144366      0.076   9.782   3.890  
    $atom:id65 $mol:id1 @atom:type7    0.328012      3.808   4.514   2.726  
    $atom:id66 $mol:id1 @atom:type1    0.071061      4.525   6.976   2.587  
    $atom:id67 $mol:id1 @atom:type6    0.130938      1.868  10.518   2.314  
    $atom:id68 $mol:id1 @atom:type6    0.095414      1.137   9.533   1.014  
    $atom:id69 $mol:id1 @atom:type7    0.233730      5.233   4.513   2.720  
    $atom:id70 $mol:id1 @atom:type4   -0.174093      3.076   3.379   2.801  
    $atom:id71 $mol:id1 @atom:type2   -0.375959      5.754   5.770   2.645  
    $atom:id72 $mol:id1 @atom:type4   -0.347201      5.957   3.365   2.770  
    $atom:id73 $mol:id1 @atom:type5   -0.141301      3.846   2.199   2.548  
    $atom:id74 $mol:id1 @atom:type3    0.272021      6.800   6.042   2.627  
    $atom:id75 $mol:id1 @atom:type5    0.059272      5.187   2.270   3.257  
    $atom:id76 $mol:id1 @atom:type6    0.130425      3.250   1.365   2.922  
    $atom:id77 $mol:id1 @atom:type6    0.134705      3.989   2.093   1.466  
    $atom:id78 $mol:id1 @atom:type6    0.113342      5.774   1.371   3.058  
    $atom:id79 $mol:id1 @atom:type6    0.081148      5.042   2.377   4.340  
    $atom:id80 $mol:id1 @atom:type3    0.267154    -17.298   5.870   2.414  
  }

  write("Data Bonds") {
    $bond:id1 @bond:type8 $atom:id5 $atom:id31
    $bond:id2 @bond:type8 $atom:id6 $atom:id31
    $bond:id3 @bond:type14 $atom:id2 $atom:id6
    $bond:id4 @bond:type16 $atom:id1 $atom:id2
    $bond:id5 @bond:type14 $atom:id1 $atom:id5
    $bond:id6 @bond:type12 $atom:id2 $atom:id30
    $bond:id7 @bond:type3 $atom:id3 $atom:id30
    $bond:id8 @bond:type4 $atom:id3 $atom:id7
    $bond:id9 @bond:type4 $atom:id3 $atom:id34
    $bond:id10 @bond:type1 $atom:id3 $atom:id4
    $bond:id11 @bond:type4 $atom:id4 $atom:id8
    $bond:id12 @bond:type4 $atom:id4 $atom:id35
    $bond:id13 @bond:type3 $atom:id4 $atom:id29
    $bond:id14 @bond:type12 $atom:id1 $atom:id29
    $bond:id15 @bond:type17 $atom:id20 $atom:id80
    $bond:id16 @bond:type8 $atom:id12 $atom:id32
    $bond:id17 @bond:type8 $atom:id9 $atom:id32
    $bond:id18 @bond:type14 $atom:id9 $atom:id10
    $bond:id19 @bond:type16 $atom:id10 $atom:id11
    $bond:id20 @bond:type14 $atom:id11 $atom:id12
    $bond:id21 @bond:type12 $atom:id10 $atom:id25
    $bond:id22 @bond:type3 $atom:id13 $atom:id25
    $bond:id23 @bond:type4 $atom:id13 $atom:id15
    $bond:id24 @bond:type4 $atom:id13 $atom:id39
    $bond:id25 @bond:type1 $atom:id13 $atom:id14
    $bond:id26 @bond:type4 $atom:id14 $atom:id16
    $bond:id27 @bond:type4 $atom:id14 $atom:id38
    $bond:id28 @bond:type3 $atom:id14 $atom:id26
    $bond:id29 @bond:type12 $atom:id11 $atom:id26
    $bond:id30 @bond:type8 $atom:id17 $atom:id33
    $bond:id31 @bond:type8 $atom:id20 $atom:id33
    $bond:id32 @bond:type14 $atom:id19 $atom:id20
    $bond:id33 @bond:type16 $atom:id18 $atom:id19
    $bond:id34 @bond:type14 $atom:id17 $atom:id18
    $bond:id35 @bond:type12 $atom:id18 $atom:id28
    $bond:id36 @bond:type3 $atom:id21 $atom:id28
    $bond:id37 @bond:type4 $atom:id21 $atom:id23
    $bond:id38 @bond:type4 $atom:id21 $atom:id36
    $bond:id39 @bond:type1 $atom:id21 $atom:id22
    $bond:id40 @bond:type4 $atom:id22 $atom:id24
    $bond:id41 @bond:type4 $atom:id22 $atom:id37
    $bond:id42 @bond:type3 $atom:id22 $atom:id27
    $bond:id43 @bond:type12 $atom:id19 $atom:id27
    $bond:id44 @bond:type8 $atom:id40 $atom:id42
    $bond:id45 @bond:type8 $atom:id42 $atom:id45
    $bond:id46 @bond:type14 $atom:id40 $atom:id41
    $bond:id47 @bond:type16 $atom:id41 $atom:id43
    $bond:id48 @bond:type14 $atom:id43 $atom:id45
    $bond:id49 @bond:type12 $atom:id43 $atom:id46
    $bond:id50 @bond:type3 $atom:id46 $atom:id49
    $bond:id51 @bond:type4 $atom:id49 $atom:id55
    $bond:id52 @bond:type4 $atom:id49 $atom:id54
    $bond:id53 @bond:type1 $atom:id47 $atom:id49
    $bond:id54 @bond:type4 $atom:id47 $atom:id50
    $bond:id55 @bond:type4 $atom:id47 $atom:id51
    $bond:id56 @bond:type3 $atom:id44 $atom:id47
    $bond:id57 @bond:type12 $atom:id41 $atom:id44
    $bond:id58 @bond:type8 $atom:id48 $atom:id53
    $bond:id59 @bond:type8 $atom:id53 $atom:id58
    $bond:id60 @bond:type14 $atom:id48 $atom:id52
    $bond:id61 @bond:type16 $atom:id52 $atom:id56
    $bond:id62 @bond:type14 $atom:id56 $atom:id58
    $bond:id63 @bond:type12 $atom:id52 $atom:id57
    $bond:id64 @bond:type3 $atom:id57 $atom:id60
    $bond:id65 @bond:type4 $atom:id60 $atom:id64
    $bond:id66 @bond:type4 $atom:id60 $atom:id63
    $bond:id67 @bond:type1 $atom:id60 $atom:id62
    $bond:id68 @bond:type4 $atom:id62 $atom:id67
    $bond:id69 @bond:type4 $atom:id62 $atom:id68
    $bond:id70 @bond:type3 $atom:id59 $atom:id62
    $bond:id71 @bond:type12 $atom:id56 $atom:id59
    $bond:id72 @bond:type8 $atom:id61 $atom:id66
    $bond:id73 @bond:type8 $atom:id66 $atom:id71
    $bond:id74 @bond:type14 $atom:id61 $atom:id65
    $bond:id75 @bond:type16 $atom:id65 $atom:id69
    $bond:id76 @bond:type14 $atom:id69 $atom:id71
    $bond:id77 @bond:type12 $atom:id65 $atom:id70
    $bond:id78 @bond:type3 $atom:id70 $atom:id73
    $bond:id79 @bond:type4 $atom:id73 $atom:id76
    $bond:id80 @bond:type4 $atom:id73 $atom:id77
    $bond:id81 @bond:type1 $atom:id73 $atom:id75
    $bond:id82 @bond:type4 $atom:id75 $atom:id79
    $bond:id83 @bond:type4 $atom:id75 $atom:id78
    $bond:id84 @bond:type3 $atom:id72 $atom:id75
    $bond:id85 @bond:type12 $atom:id69 $atom:id72
    $bond:id86 @bond:type17 $atom:id71 $atom:id74
    $bond:id87 @bond:type13 $atom:id5 $atom:id9
    $bond:id88 @bond:type13 $atom:id12 $atom:id17
    $bond:id89 @bond:type13 $atom:id6 $atom:id40
    $bond:id90 @bond:type13 $atom:id45 $atom:id48
    $bond:id91 @bond:type13 $atom:id58 $atom:id61
  }

  write("Data Angles") {
    $angle:id1 @angle:type3 $atom:id3 $atom:id4 $atom:id29
    $angle:id2 @angle:type3 $atom:id4 $atom:id3 $atom:id30
    $angle:id3 @angle:type3 $atom:id13 $atom:id14 $atom:id26
    $angle:id4 @angle:type3 $atom:id14 $atom:id13 $atom:id25
    $angle:id5 @angle:type3 $atom:id21 $atom:id22 $atom:id27
    $angle:id6 @angle:type3 $atom:id22 $atom:id21 $atom:id28
    $angle:id7 @angle:type3 $atom:id46 $atom:id49 $atom:id47
    $angle:id8 @angle:type3 $atom:id44 $atom:id47 $atom:id49
    $angle:id9 @angle:type3 $atom:id59 $atom:id62 $atom:id60
    $angle:id10 @angle:type3 $atom:id57 $atom:id60 $atom:id62
    $angle:id11 @angle:type3 $atom:id72 $atom:id75 $atom:id73
    $angle:id12 @angle:type3 $atom:id70 $atom:id73 $atom:id75
    $angle:id13 @angle:type4 $atom:id7 $atom:id3 $atom:id34
    $angle:id14 @angle:type4 $atom:id8 $atom:id4 $atom:id35
    $angle:id15 @angle:type4 $atom:id15 $atom:id13 $atom:id39
    $angle:id16 @angle:type4 $atom:id16 $atom:id14 $atom:id38
    $angle:id17 @angle:type4 $atom:id23 $atom:id21 $atom:id36
    $angle:id18 @angle:type4 $atom:id24 $atom:id22 $atom:id37
    $angle:id19 @angle:type4 $atom:id50 $atom:id47 $atom:id51
    $angle:id20 @angle:type4 $atom:id54 $atom:id49 $atom:id55
    $angle:id21 @angle:type4 $atom:id63 $atom:id60 $atom:id64
    $angle:id22 @angle:type4 $atom:id67 $atom:id62 $atom:id68
    $angle:id23 @angle:type4 $atom:id76 $atom:id73 $atom:id77
    $angle:id24 @angle:type4 $atom:id78 $atom:id75 $atom:id79
    $angle:id25 @angle:type6 $atom:id15 $atom:id13 $atom:id25
    $angle:id26 @angle:type6 $atom:id25 $atom:id13 $atom:id39
    $angle:id27 @angle:type6 $atom:id16 $atom:id14 $atom:id26
    $angle:id28 @angle:type6 $atom:id26 $atom:id14 $atom:id38
    $angle:id29 @angle:type6 $atom:id24 $atom:id22 $atom:id27
    $angle:id30 @angle:type6 $atom:id27 $atom:id22 $atom:id37
    $angle:id31 @angle:type6 $atom:id23 $atom:id21 $atom:id28
    $angle:id32 @angle:type6 $atom:id28 $atom:id21 $atom:id36
    $angle:id33 @angle:type6 $atom:id8 $atom:id4 $atom:id29
    $angle:id34 @angle:type6 $atom:id29 $atom:id4 $atom:id35
    $angle:id35 @angle:type6 $atom:id7 $atom:id3 $atom:id30
    $angle:id36 @angle:type6 $atom:id30 $atom:id3 $atom:id34
    $angle:id37 @angle:type6 $atom:id44 $atom:id47 $atom:id50
    $angle:id38 @angle:type6 $atom:id44 $atom:id47 $atom:id51
    $angle:id39 @angle:type6 $atom:id46 $atom:id49 $atom:id55
    $angle:id40 @angle:type6 $atom:id46 $atom:id49 $atom:id54
    $angle:id41 @angle:type6 $atom:id57 $atom:id60 $atom:id64
    $angle:id42 @angle:type6 $atom:id57 $atom:id60 $atom:id63
    $angle:id43 @angle:type6 $atom:id59 $atom:id62 $atom:id67
    $angle:id44 @angle:type6 $atom:id59 $atom:id62 $atom:id68
    $angle:id45 @angle:type6 $atom:id70 $atom:id73 $atom:id76
    $angle:id46 @angle:type6 $atom:id70 $atom:id73 $atom:id77
    $angle:id47 @angle:type6 $atom:id72 $atom:id75 $atom:id79
    $angle:id48 @angle:type6 $atom:id72 $atom:id75 $atom:id78
    $angle:id49 @angle:type7 $atom:id3 $atom:id4 $atom:id8
    $angle:id50 @angle:type7 $atom:id3 $atom:id4 $atom:id35
    $angle:id51 @angle:type7 $atom:id4 $atom:id3 $atom:id7
    $angle:id52 @angle:type7 $atom:id4 $atom:id3 $atom:id34
    $angle:id53 @angle:type7 $atom:id13 $atom:id14 $atom:id16
    $angle:id54 @angle:type7 $atom:id13 $atom:id14 $atom:id38
    $angle:id55 @angle:type7 $atom:id14 $atom:id13 $atom:id15
    $angle:id56 @angle:type7 $atom:id14 $atom:id13 $atom:id39
    $angle:id57 @angle:type7 $atom:id21 $atom:id22 $atom:id24
    $angle:id58 @angle:type7 $atom:id21 $atom:id22 $atom:id37
    $angle:id59 @angle:type7 $atom:id22 $atom:id21 $atom:id23
    $angle:id60 @angle:type7 $atom:id22 $atom:id21 $atom:id36
    $angle:id61 @angle:type7 $atom:id47 $atom:id49 $atom:id55
    $angle:id62 @angle:type7 $atom:id47 $atom:id49 $atom:id54
    $angle:id63 @angle:type7 $atom:id49 $atom:id47 $atom:id50
    $angle:id64 @angle:type7 $atom:id49 $atom:id47 $atom:id51
    $angle:id65 @angle:type7 $atom:id60 $atom:id62 $atom:id67
    $angle:id66 @angle:type7 $atom:id60 $atom:id62 $atom:id68
    $angle:id67 @angle:type7 $atom:id62 $atom:id60 $atom:id64
    $angle:id68 @angle:type7 $atom:id62 $atom:id60 $atom:id63
    $angle:id69 @angle:type7 $atom:id73 $atom:id75 $atom:id79
    $angle:id70 @angle:type7 $atom:id73 $atom:id75 $atom:id78
    $angle:id71 @angle:type7 $atom:id75 $atom:id73 $atom:id76
    $angle:id72 @angle:type7 $atom:id75 $atom:id73 $atom:id77
    $angle:id73 @angle:type26 $atom:id2 $atom:id30 $atom:id3
    $angle:id74 @angle:type26 $atom:id1 $atom:id29 $atom:id4
    $angle:id75 @angle:type26 $atom:id10 $atom:id25 $atom:id13
    $angle:id76 @angle:type26 $atom:id11 $atom:id26 $atom:id14
    $angle:id77 @angle:type26 $atom:id18 $atom:id28 $atom:id21
    $angle:id78 @angle:type26 $atom:id19 $atom:id27 $atom:id22
    $angle:id79 @angle:type26 $atom:id41 $atom:id44 $atom:id47
    $angle:id80 @angle:type26 $atom:id43 $atom:id46 $atom:id49
    $angle:id81 @angle:type26 $atom:id52 $atom:id57 $atom:id60
    $angle:id82 @angle:type26 $atom:id56 $atom:id59 $atom:id62
    $angle:id83 @angle:type26 $atom:id65 $atom:id70 $atom:id73
    $angle:id84 @angle:type26 $atom:id69 $atom:id72 $atom:id75
    $angle:id85 @angle:type35 $atom:id1 $atom:id5 $atom:id9
    $angle:id86 @angle:type35 $atom:id2 $atom:id6 $atom:id40
    $angle:id87 @angle:type35 $atom:id5 $atom:id9 $atom:id10
    $angle:id88 @angle:type35 $atom:id11 $atom:id12 $atom:id17
    $angle:id89 @angle:type35 $atom:id12 $atom:id17 $atom:id18
    $angle:id90 @angle:type35 $atom:id6 $atom:id40 $atom:id41
    $angle:id91 @angle:type35 $atom:id43 $atom:id45 $atom:id48
    $angle:id92 @angle:type35 $atom:id45 $atom:id48 $atom:id52
    $angle:id93 @angle:type35 $atom:id56 $atom:id58 $atom:id61
    $angle:id94 @angle:type35 $atom:id58 $atom:id61 $atom:id65
    $angle:id95 @angle:type37 $atom:id1 $atom:id2 $atom:id6
    $angle:id96 @angle:type37 $atom:id2 $atom:id1 $atom:id5
    $angle:id97 @angle:type37 $atom:id10 $atom:id11 $atom:id12
    $angle:id98 @angle:type37 $atom:id9 $atom:id10 $atom:id11
    $angle:id99 @angle:type37 $atom:id18 $atom:id19 $atom:id20
    $angle:id100 @angle:type37 $atom:id17 $atom:id18 $atom:id19
    $angle:id101 @angle:type37 $atom:id41 $atom:id43 $atom:id45
    $angle:id102 @angle:type37 $atom:id40 $atom:id41 $atom:id43
    $angle:id103 @angle:type37 $atom:id52 $atom:id56 $atom:id58
    $angle:id104 @angle:type37 $atom:id48 $atom:id52 $atom:id56
    $angle:id105 @angle:type37 $atom:id65 $atom:id69 $atom:id71
    $angle:id106 @angle:type37 $atom:id61 $atom:id65 $atom:id69
    $angle:id107 @angle:type45 $atom:id9 $atom:id10 $atom:id25
    $angle:id108 @angle:type45 $atom:id12 $atom:id11 $atom:id26
    $angle:id109 @angle:type45 $atom:id20 $atom:id19 $atom:id27
    $angle:id110 @angle:type45 $atom:id17 $atom:id18 $atom:id28
    $angle:id111 @angle:type45 $atom:id5 $atom:id1 $atom:id29
    $angle:id112 @angle:type45 $atom:id6 $atom:id2 $atom:id30
    $angle:id113 @angle:type45 $atom:id40 $atom:id41 $atom:id44
    $angle:id114 @angle:type45 $atom:id45 $atom:id43 $atom:id46
    $angle:id115 @angle:type45 $atom:id48 $atom:id52 $atom:id57
    $angle:id116 @angle:type45 $atom:id58 $atom:id56 $atom:id59
    $angle:id117 @angle:type45 $atom:id61 $atom:id65 $atom:id70
    $angle:id118 @angle:type45 $atom:id71 $atom:id69 $atom:id72
    $angle:id119 @angle:type46 $atom:id11 $atom:id10 $atom:id25
    $angle:id120 @angle:type46 $atom:id10 $atom:id11 $atom:id26
    $angle:id121 @angle:type46 $atom:id18 $atom:id19 $atom:id27
    $angle:id122 @angle:type46 $atom:id19 $atom:id18 $atom:id28
    $angle:id123 @angle:type46 $atom:id2 $atom:id1 $atom:id29
    $angle:id124 @angle:type46 $atom:id1 $atom:id2 $atom:id30
    $angle:id125 @angle:type46 $atom:id43 $atom:id41 $atom:id44
    $angle:id126 @angle:type46 $atom:id41 $atom:id43 $atom:id46
    $angle:id127 @angle:type46 $atom:id56 $atom:id52 $atom:id57
    $angle:id128 @angle:type46 $atom:id52 $atom:id56 $atom:id59
    $angle:id129 @angle:type46 $atom:id69 $atom:id65 $atom:id70
    $angle:id130 @angle:type46 $atom:id65 $atom:id69 $atom:id72
    $angle:id131 @angle:type47 $atom:id9 $atom:id5 $atom:id31
    $angle:id132 @angle:type47 $atom:id31 $atom:id6 $atom:id40
    $angle:id133 @angle:type47 $atom:id17 $atom:id12 $atom:id32
    $angle:id134 @angle:type47 $atom:id5 $atom:id9 $atom:id32
    $angle:id135 @angle:type47 $atom:id12 $atom:id17 $atom:id33
    $angle:id136 @angle:type47 $atom:id6 $atom:id40 $atom:id42
    $angle:id137 @angle:type47 $atom:id42 $atom:id45 $atom:id48
    $angle:id138 @angle:type47 $atom:id45 $atom:id48 $atom:id53
    $angle:id139 @angle:type47 $atom:id53 $atom:id58 $atom:id61
    $angle:id140 @angle:type47 $atom:id58 $atom:id61 $atom:id66
    $angle:id141 @angle:type48 $atom:id1 $atom:id5 $atom:id31
    $angle:id142 @angle:type48 $atom:id2 $atom:id6 $atom:id31
    $angle:id143 @angle:type48 $atom:id11 $atom:id12 $atom:id32
    $angle:id144 @angle:type48 $atom:id10 $atom:id9 $atom:id32
    $angle:id145 @angle:type48 $atom:id18 $atom:id17 $atom:id33
    $angle:id146 @angle:type48 $atom:id19 $atom:id20 $atom:id33
    $angle:id147 @angle:type48 $atom:id41 $atom:id40 $atom:id42
    $angle:id148 @angle:type48 $atom:id42 $atom:id45 $atom:id43
    $angle:id149 @angle:type48 $atom:id52 $atom:id48 $atom:id53
    $angle:id150 @angle:type48 $atom:id53 $atom:id58 $atom:id56
    $angle:id151 @angle:type48 $atom:id65 $atom:id61 $atom:id66
    $angle:id152 @angle:type48 $atom:id66 $atom:id71 $atom:id69
    $angle:id153 @angle:type53 $atom:id19 $atom:id20 $atom:id80
    $angle:id154 @angle:type53 $atom:id69 $atom:id71 $atom:id74
  }

  write("Data Dihedrals") {
    $dihedral:id1 @dihedral:type6 $atom:id25 $atom:id13 $atom:id14 $atom:id26
    $dihedral:id2 @dihedral:type6 $atom:id27 $atom:id22 $atom:id21 $atom:id28
    $dihedral:id3 @dihedral:type6 $atom:id29 $atom:id4 $atom:id3 $atom:id30
    $dihedral:id4 @dihedral:type6 $atom:id44 $atom:id47 $atom:id49 $atom:id46
    $dihedral:id5 @dihedral:type6 $atom:id57 $atom:id60 $atom:id62 $atom:id59
    $dihedral:id6 @dihedral:type6 $atom:id70 $atom:id73 $atom:id75 $atom:id72
    $dihedral:id7 @dihedral:type7 $atom:id16 $atom:id14 $atom:id13 $atom:id25
    $dihedral:id8 @dihedral:type7 $atom:id25 $atom:id13 $atom:id14 $atom:id38
    $dihedral:id9 @dihedral:type7 $atom:id15 $atom:id13 $atom:id14 $atom:id26
    $dihedral:id10 @dihedral:type7 $atom:id26 $atom:id14 $atom:id13 $atom:id39
    $dihedral:id11 @dihedral:type7 $atom:id23 $atom:id21 $atom:id22 $atom:id27
    $dihedral:id12 @dihedral:type7 $atom:id27 $atom:id22 $atom:id21 $atom:id36
    $dihedral:id13 @dihedral:type7 $atom:id24 $atom:id22 $atom:id21 $atom:id28
    $dihedral:id14 @dihedral:type7 $atom:id28 $atom:id21 $atom:id22 $atom:id37
    $dihedral:id15 @dihedral:type7 $atom:id7 $atom:id3 $atom:id4 $atom:id29
    $dihedral:id16 @dihedral:type7 $atom:id29 $atom:id4 $atom:id3 $atom:id34
    $dihedral:id17 @dihedral:type7 $atom:id8 $atom:id4 $atom:id3 $atom:id30
    $dihedral:id18 @dihedral:type7 $atom:id30 $atom:id3 $atom:id4 $atom:id35
    $dihedral:id19 @dihedral:type7 $atom:id44 $atom:id47 $atom:id49 $atom:id55
    $dihedral:id20 @dihedral:type7 $atom:id44 $atom:id47 $atom:id49 $atom:id54
    $dihedral:id21 @dihedral:type7 $atom:id46 $atom:id49 $atom:id47 $atom:id50
    $dihedral:id22 @dihedral:type7 $atom:id46 $atom:id49 $atom:id47 $atom:id51
    $dihedral:id23 @dihedral:type7 $atom:id57 $atom:id60 $atom:id62 $atom:id67
    $dihedral:id24 @dihedral:type7 $atom:id57 $atom:id60 $atom:id62 $atom:id68
    $dihedral:id25 @dihedral:type7 $atom:id59 $atom:id62 $atom:id60 $atom:id64
    $dihedral:id26 @dihedral:type7 $atom:id59 $atom:id62 $atom:id60 $atom:id63
    $dihedral:id27 @dihedral:type7 $atom:id70 $atom:id73 $atom:id75 $atom:id79
    $dihedral:id28 @dihedral:type7 $atom:id70 $atom:id73 $atom:id75 $atom:id78
    $dihedral:id29 @dihedral:type7 $atom:id72 $atom:id75 $atom:id73 $atom:id76
    $dihedral:id30 @dihedral:type7 $atom:id72 $atom:id75 $atom:id73 $atom:id77
    $dihedral:id31 @dihedral:type8 $atom:id7 $atom:id3 $atom:id4 $atom:id8
    $dihedral:id32 @dihedral:type8 $atom:id7 $atom:id3 $atom:id4 $atom:id35
    $dihedral:id33 @dihedral:type8 $atom:id8 $atom:id4 $atom:id3 $atom:id34
    $dihedral:id34 @dihedral:type8 $atom:id15 $atom:id13 $atom:id14 $atom:id16
    $dihedral:id35 @dihedral:type8 $atom:id15 $atom:id13 $atom:id14 $atom:id38
    $dihedral:id36 @dihedral:type8 $atom:id16 $atom:id14 $atom:id13 $atom:id39
    $dihedral:id37 @dihedral:type8 $atom:id23 $atom:id21 $atom:id22 $atom:id24
    $dihedral:id38 @dihedral:type8 $atom:id23 $atom:id21 $atom:id22 $atom:id37
    $dihedral:id39 @dihedral:type8 $atom:id24 $atom:id22 $atom:id21 $atom:id36
    $dihedral:id40 @dihedral:type8 $atom:id34 $atom:id3 $atom:id4 $atom:id35
    $dihedral:id41 @dihedral:type8 $atom:id36 $atom:id21 $atom:id22 $atom:id37
    $dihedral:id42 @dihedral:type8 $atom:id38 $atom:id14 $atom:id13 $atom:id39
    $dihedral:id43 @dihedral:type8 $atom:id50 $atom:id47 $atom:id49 $atom:id55
    $dihedral:id44 @dihedral:type8 $atom:id50 $atom:id47 $atom:id49 $atom:id54
    $dihedral:id45 @dihedral:type8 $atom:id51 $atom:id47 $atom:id49 $atom:id55
    $dihedral:id46 @dihedral:type8 $atom:id51 $atom:id47 $atom:id49 $atom:id54
    $dihedral:id47 @dihedral:type8 $atom:id63 $atom:id60 $atom:id62 $atom:id67
    $dihedral:id48 @dihedral:type8 $atom:id63 $atom:id60 $atom:id62 $atom:id68
    $dihedral:id49 @dihedral:type8 $atom:id64 $atom:id60 $atom:id62 $atom:id67
    $dihedral:id50 @dihedral:type8 $atom:id64 $atom:id60 $atom:id62 $atom:id68
    $dihedral:id51 @dihedral:type8 $atom:id76 $atom:id73 $atom:id75 $atom:id79
    $dihedral:id52 @dihedral:type8 $atom:id76 $atom:id73 $atom:id75 $atom:id78
    $dihedral:id53 @dihedral:type8 $atom:id77 $atom:id73 $atom:id75 $atom:id79
    $dihedral:id54 @dihedral:type8 $atom:id77 $atom:id73 $atom:id75 $atom:id78
    $dihedral:id55 @dihedral:type20 $atom:id2 $atom:id30 $atom:id3 $atom:id7
    $dihedral:id56 @dihedral:type20 $atom:id1 $atom:id29 $atom:id4 $atom:id8
    $dihedral:id57 @dihedral:type20 $atom:id10 $atom:id25 $atom:id13 $atom:id15
    $dihedral:id58 @dihedral:type20 $atom:id11 $atom:id26 $atom:id14 $atom:id16
    $dihedral:id59 @dihedral:type20 $atom:id18 $atom:id28 $atom:id21 $atom:id23
    $dihedral:id60 @dihedral:type20 $atom:id19 $atom:id27 $atom:id22 $atom:id24
    $dihedral:id61 @dihedral:type20 $atom:id2 $atom:id30 $atom:id3 $atom:id34
    $dihedral:id62 @dihedral:type20 $atom:id1 $atom:id29 $atom:id4 $atom:id35
    $dihedral:id63 @dihedral:type20 $atom:id18 $atom:id28 $atom:id21 $atom:id36
    $dihedral:id64 @dihedral:type20 $atom:id19 $atom:id27 $atom:id22 $atom:id37
    $dihedral:id65 @dihedral:type20 $atom:id11 $atom:id26 $atom:id14 $atom:id38
    $dihedral:id66 @dihedral:type20 $atom:id10 $atom:id25 $atom:id13 $atom:id39
    $dihedral:id67 @dihedral:type20 $atom:id41 $atom:id44 $atom:id47 $atom:id50
    $dihedral:id68 @dihedral:type20 $atom:id41 $atom:id44 $atom:id47 $atom:id51
    $dihedral:id69 @dihedral:type20 $atom:id43 $atom:id46 $atom:id49 $atom:id54
    $dihedral:id70 @dihedral:type20 $atom:id43 $atom:id46 $atom:id49 $atom:id55
    $dihedral:id71 @dihedral:type20 $atom:id52 $atom:id57 $atom:id60 $atom:id63
    $dihedral:id72 @dihedral:type20 $atom:id52 $atom:id57 $atom:id60 $atom:id64
    $dihedral:id73 @dihedral:type20 $atom:id56 $atom:id59 $atom:id62 $atom:id67
    $dihedral:id74 @dihedral:type20 $atom:id56 $atom:id59 $atom:id62 $atom:id68
    $dihedral:id75 @dihedral:type20 $atom:id65 $atom:id70 $atom:id73 $atom:id76
    $dihedral:id76 @dihedral:type20 $atom:id65 $atom:id70 $atom:id73 $atom:id77
    $dihedral:id77 @dihedral:type20 $atom:id69 $atom:id72 $atom:id75 $atom:id78
    $dihedral:id78 @dihedral:type20 $atom:id69 $atom:id72 $atom:id75 $atom:id79